15	3	2
2031	2031	2031	
394	567	850	
15	490	971	
188	711	890	
233	746	1400	
379	482	904	
710	280	301	
669	683	856	
67	521	778	
316	251	307	
681	288	407	
707	458	559	
22	751	1433	
188	224	253	
244	962	1336	
923	710	787	
